50 200
0 250 250 0 0 1925 0 -1 -1
0 396 417 13 0 1925 10 0 0
1 51 286 -13 0 1925 10 1 0
2 288 439 16 0 1925 10 0 1
3 399 175 13 0 1925 10 0 1
4 247 306 33 0 1925 10 0 1
5 247 443 17 0 1925 10 0 1
6 80 400 10 0 1925 10 0 1
7 226 423 15 0 1925 10 0 1
8 394 322 12 0 1925 10 0 1
9 257 391 -116 0 1925 10 1 1
10 176 199 28 0 1925 10 0 2
11 34 329 -28 0 1925 10 1 2
12 144 35 26 0 1925 10 0 3
13 111 392 18 0 1925 10 0 3
14 235 13 27 0 1925 10 0 3
15 103 464 -71 0 1925 10 1 3
16 154 374 36 0 1925 10 0 4
17 10 237 19 0 1925 10 0 4
18 84 255 13 0 1925 10 0 4
19 244 277 18 0 1925 0 0 4
20 273 149 14 0 1925 0 0 4
21 289 220 19 0 1925 10 0 4
22 190 267 -119 0 1925 10 1 4
23 0 356 13 0 1925 10 0 5
24 226 316 21 0 1925 10 0 5
25 139 438 24 0 1925 10 0 5
26 274 261 -58 0 1925 10 1 5
27 29 358 23 0 1925 10 0 6
28 235 288 18 0 1925 10 0 6
29 138 28 23 0 1925 10 0 6
30 329 456 19 0 1925 10 0 6
31 59 388 20 0 1925 10 0 6
32 248 386 22 0 1925 10 0 6
33 172 66 -125 0 1925 10 1 6
34 382 360 26 0 1925 10 0 7
35 318 280 21 0 1925 10 0 7
36 360 488 19 0 1925 10 0 7
37 400 71 17 0 1925 0 0 7
38 375 145 12 0 1925 10 0 7
39 351 128 15 0 1925 10 0 7
40 272 234 -110 0 1925 10 1 7
41 306 235 25 0 1925 10 0 8
42 198 85 28 0 1925 10 0 8
43 337 41 8 0 1925 10 0 8
44 355 174 33 0 1925 10 0 8
45 330 138 18 0 1925 0 0 8
46 437 90 12 0 1925 0 0 8
47 225 269 -124 0 1925 10 1 8
48 394 47 5 0 1925 10 0 9
49 268 288 -5 0 1925 10 1 9
50 303 78 12 0 1925 10 0 10
51 40 304 16 0 1925 10 0 10
52 381 328 12 0 1925 10 0 10
53 420 224 10 0 1925 10 0 10
54 12 358 -50 0 1925 10 1 10
55 142 80 12 0 1925 10 0 11
56 489 338 17 0 1925 0 0 11
57 9 101 16 0 1925 10 0 11
58 210 219 7 0 1925 10 0 11
59 485 428 -52 0 1925 10 1 11
60 441 7 20 0 1925 10 0 12
61 149 458 13 0 1925 10 0 12
62 191 215 17 0 1925 10 0 12
63 392 1 11 0 1925 10 0 12
64 162 301 -61 0 1925 10 1 12
65 447 184 27 0 1925 10 0 13
66 468 352 9 0 1925 10 0 13
67 435 180 37 0 1925 10 0 13
68 287 256 18 0 1925 10 0 13
69 420 383 -91 0 1925 10 1 13
70 253 50 27 0 1925 10 0 14
71 439 156 2 0 1925 10 0 14
72 161 275 21 0 1925 10 0 14
73 385 58 24 0 1925 10 0 14
74 178 135 -74 0 1925 10 1 14
75 5 445 30 0 1925 10 0 15
76 181 441 25 0 1925 10 0 15
77 452 484 26 0 1925 0 0 15
78 137 377 23 0 1925 10 0 15
79 120 261 5 0 1925 10 0 15
80 202 391 30 0 1925 10 0 15
81 498 456 27 0 1925 10 0 15
82 270 337 -166 0 1925 10 1 15
83 499 316 18 0 1925 10 0 16
84 436 123 40 0 1925 10 0 16
85 242 106 -58 0 1925 10 1 16
86 299 353 34 0 1925 10 0 17
87 411 379 -34 0 1925 10 1 17
88 154 392 9 0 1925 10 0 18
89 463 253 -9 0 1925 10 1 18
90 349 43 26 0 1925 10 0 19
91 23 235 43 0 1925 0 0 19
92 489 274 31 0 1925 10 0 19
93 360 284 19 0 1925 10 0 19
94 214 274 -119 0 1925 10 1 19
95 158 179 37 0 1925 10 0 20
96 461 182 -37 0 1925 10 1 20
97 323 29 7 0 1925 0 0 21
98 213 185 21 0 1925 10 0 21
99 110 251 23 0 1925 10 0 21
100 200 78 31 0 1925 10 0 21
101 26 342 12 0 1925 10 0 21
102 71 282 29 0 1925 10 0 21
103 199 203 20 0 1925 10 0 21
104 157 269 -143 0 1925 10 1 21
105 241 402 11 0 1925 10 0 22
106 169 305 21 0 1925 10 0 22
107 433 319 -32 0 1925 10 1 22
108 50 383 20 0 1925 10 0 23
109 92 259 4 0 1925 10 0 23
110 283 454 14 0 1925 10 0 23
111 228 260 -38 0 1925 10 1 23
112 199 438 3 0 1925 10 0 24
113 66 88 2 0 1925 10 0 24
114 130 247 17 0 1925 10 0 24
115 86 199 23 0 1925 10 0 24
116 125 61 26 0 1925 10 0 24
117 53 204 8 0 1925 10 0 24
118 142 360 -79 0 1925 10 1 24
119 34 239 16 0 1925 10 0 25
120 34 169 11 0 1925 0 0 25
121 136 265 12 0 1925 10 0 25
122 14 232 18 0 1925 10 0 25
123 415 207 -57 0 1925 10 1 25
124 447 272 12 0 1925 10 0 26
125 261 359 10 0 1925 10 0 26
126 268 351 7 0 1925 0 0 26
127 179 75 13 0 1925 10 0 26
128 268 351 -42 0 1925 10 1 26
129 172 292 17 0 1925 10 0 27
130 395 474 26 0 1925 10 0 27
131 159 299 12 0 1925 10 0 27
132 235 33 30 0 1925 10 0 27
133 398 476 25 0 1925 10 0 27
134 214 245 8 0 1925 0 0 27
135 450 416 25 0 1925 10 0 27
136 209 212 -143 0 1925 10 1 27
137 219 215 32 0 1925 10 0 28
138 277 428 7 0 1925 10 0 28
139 368 311 14 0 1925 10 0 28
140 325 311 -53 0 1925 10 1 28
141 484 224 7 0 1925 10 0 29
142 30 97 23 0 1925 10 0 29
143 343 34 7 0 1925 10 0 29
144 228 287 21 0 1925 10 0 29
145 140 108 29 0 1925 10 0 29
146 171 303 -87 0 1925 10 1 29
147 482 104 19 0 1925 10 0 30
148 433 319 11 0 1925 0 0 30
149 71 12 2 0 1925 10 0 30
150 480 152 26 0 1925 10 0 30
151 384 149 18 0 1925 0 0 30
152 253 118 19 0 1925 10 0 30
153 429 169 8 0 1925 10 0 30
154 402 277 -103 0 1925 10 1 30
155 90 477 18 0 1925 10 0 31
156 13 465 31 0 1925 10 0 31
157 33 152 17 0 1925 10 0 31
158 185 431 15 0 1925 10 0 31
159 94 192 1 0 1925 10 0 31
160 51 89 19 0 1925 10 0 31
161 218 271 16 0 1925 10 0 31
162 226 175 -117 0 1925 10 1 31
163 479 387 13 0 1925 10 0 32
164 498 457 15 0 1925 10 0 32
165 330 308 24 0 1925 10 0 32
166 285 247 -52 0 1925 10 1 32
167 345 431 12 0 1925 10 0 33
168 293 174 31 0 1925 10 0 33
169 94 497 31 0 1925 10 0 33
170 5 281 16 0 1925 10 0 33
171 268 458 24 0 1925 10 0 33
172 153 362 7 0 1925 0 0 33
173 167 291 -121 0 1925 10 1 33
174 132 151 22 0 1925 10 0 34
175 48 366 29 0 1925 0 0 34
176 60 29 32 0 1925 10 0 34
177 7 194 29 0 1925 0 0 34
178 7 82 25 0 1925 10 0 34
179 267 174 -137 0 1925 10 1 34
180 162 306 22 0 1925 10 0 35
181 125 65 17 0 1925 10 0 35
182 223 178 20 0 1925 10 0 35
183 340 291 22 0 1925 10 0 35
184 202 28 22 0 1925 0 0 35
185 323 34 -103 0 1925 10 1 35
186 87 311 7 0 1925 10 0 36
187 89 65 16 0 1925 10 0 36
188 62 375 16 0 1925 10 0 36
189 13 314 14 0 1925 10 0 36
190 248 176 -53 0 1925 10 1 36
191 153 235 10 0 1925 10 0 37
192 379 486 -10 0 1925 10 1 37
193 408 318 15 0 1925 0 0 38
194 454 201 16 0 1925 10 0 38
195 366 260 -31 0 1925 10 1 38
196 488 173 25 0 1925 0 0 39
197 460 328 13 0 1925 10 0 39
198 396 83 -38 0 1925 10 1 39
199 3 23 11 0 1925 10 0 40
200 297 283 -11 0 1925 10 1 40
201 460 117 14 0 1925 10 0 41
202 320 211 16 0 1925 10 0 41
203 175 352 -30 0 1925 10 1 41
204 210 81 2 0 1925 10 0 42
205 295 283 26 0 1925 10 0 42
206 114 102 21 0 1925 10 0 42
207 166 247 1 0 1925 10 0 42
208 333 163 32 0 1925 10 0 42
209 292 104 26 0 1925 10 0 42
210 489 159 29 0 1925 10 0 42
211 212 186 -137 0 1925 10 1 42
212 385 239 21 0 1925 10 0 43
213 102 422 23 0 1925 10 0 43
214 332 5 14 0 1925 10 0 43
215 364 71 -58 0 1925 10 1 43
216 415 253 21 0 1925 10 0 44
217 290 145 5 0 1925 10 0 44
218 207 487 4 0 1925 10 0 44
219 376 385 12 0 1925 10 0 44
220 371 427 23 0 1925 10 0 44
221 318 497 21 0 1925 10 0 44
222 273 255 18 0 1925 0 0 44
223 273 255 -104 0 1925 10 1 44
224 451 305 13 0 1925 10 0 45
225 46 248 9 0 1925 10 0 45
226 67 451 5 0 1925 10 0 45
227 240 240 -27 0 1925 10 1 45
228 77 465 11 0 1925 10 0 46
229 222 331 10 0 1925 0 0 46
230 478 300 12 0 1925 10 0 46
231 448 414 23 0 1925 10 0 46
232 239 486 -56 0 1925 10 1 46
233 332 459 35 0 1925 0 0 47
234 39 153 26 0 1925 10 0 47
235 62 94 -61 0 1925 10 1 47
236 351 148 30 0 1925 10 0 48
237 43 360 2 0 1925 10 0 48
238 175 239 23 0 1925 10 0 48
239 352 481 15 0 1925 10 0 48
240 177 156 25 0 1925 10 0 48
241 35 344 21 0 1925 10 0 48
242 272 420 7 0 1925 10 0 48
243 243 408 -123 0 1925 10 1 48
244 79 257 26 0 1925 10 0 49
245 306 229 -26 0 1925 10 1 49
246 120 17 30 0 1925 10 0 50
247 236 126 23 0 1925 10 0 50
248 187 61 19 0 1925 10 0 50
249 352 241 5 0 1925 10 0 50
250 168 59 6 0 1925 10 0 50
251 447 267 19 0 1925 10 0 50
252 495 355 -102 0 1925 10 1 50
253 382 9 30 0 1925 10 0 51
254 251 63 14 0 1925 10 0 51
255 432 2 20 0 1925 10 0 51
256 426 38 23 0 1925 10 0 51
257 264 135 1 0 1925 10 0 51
258 352 63 6 0 1925 10 0 51
259 321 149 -94 0 1925 10 1 51
260 366 334 5 0 1925 10 0 52
261 365 274 14 0 1925 10 0 52
262 260 472 33 0 1925 10 0 52
263 470 417 11 0 1925 10 0 52
264 456 157 -63 0 1925 10 1 52
265 365 28 9 0 1925 10 0 53
266 331 356 13 0 1925 10 0 53
267 470 405 17 0 1925 0 0 53
268 266 221 9 0 1925 10 0 53
269 392 491 10 0 1925 10 0 53
270 448 397 33 0 1925 10 0 53
271 397 477 13 0 1925 10 0 53
272 406 408 -104 0 1925 10 1 53
273 279 355 9 0 1925 10 0 54
274 90 496 13 0 1925 10 0 54
275 77 172 23 0 1925 10 0 54
276 229 322 -45 0 1925 10 1 54
277 243 402 13 0 1925 10 0 55
278 331 134 11 0 1925 10 0 55
279 265 240 9 0 1925 10 0 55
280 318 99 -33 0 1925 10 1 55
281 410 399 25 0 1925 10 0 56
282 357 290 24 0 1925 10 0 56
283 348 348 23 0 1925 10 0 56
284 273 149 -72 0 1925 10 1 56
285 374 232 33 0 1925 10 0 57
286 19 38 15 0 1925 10 0 57
287 67 378 26 0 1925 10 0 57
288 92 18 8 0 1925 0 0 57
289 94 40 24 0 1925 10 0 57
290 79 80 19 0 1925 10 0 57
291 58 39 12 0 1925 10 0 57
292 241 180 -137 0 1925 10 1 57
293 468 360 16 0 1925 10 0 58
294 482 141 -16 0 1925 10 1 58
295 187 263 35 0 1925 10 0 59
296 267 374 23 0 1925 10 0 59
297 428 302 27 0 1925 10 0 59
298 213 399 18 0 1925 10 0 59
299 253 74 20 0 1925 0 0 59
300 267 162 -123 0 1925 10 1 59
301 471 368 19 0 1925 10 0 60
302 481 454 14 0 1925 10 0 60
303 450 194 27 0 1925 10 0 60
304 398 49 21 0 1925 0 0 60
305 157 38 3 0 1925 10 0 60
306 257 57 -84 0 1925 10 1 60
307 372 97 13 0 1925 10 0 61
308 41 120 22 0 1925 10 0 61
309 372 115 13 0 1925 10 0 61
310 466 149 16 0 1925 0 0 61
311 498 171 12 0 1925 10 0 61
312 347 192 -76 0 1925 10 1 61
313 93 413 17 0 1925 10 0 62
314 89 322 21 0 1925 10 0 62
315 240 34 -38 0 1925 10 1 62
316 195 386 13 0 1925 10 0 63
317 381 457 28 0 1925 10 0 63
318 215 434 9 0 1925 10 0 63
319 475 267 -50 0 1925 10 1 63
320 43 135 31 0 1925 10 0 64
321 48 437 4 0 1925 10 0 64
322 61 214 4 0 1925 10 0 64
323 208 445 22 0 1925 10 0 64
324 104 349 20 0 1925 10 0 64
325 3 471 13 0 1925 10 0 64
326 84 377 10 0 1925 10 0 64
327 177 486 -104 0 1925 10 1 64
328 441 374 10 0 1925 10 0 65
329 390 249 -10 0 1925 10 1 65
330 173 65 12 0 1925 10 0 66
331 60 246 25 0 1925 10 0 66
332 440 284 25 0 1925 10 0 66
333 41 232 16 0 1925 10 0 66
334 441 177 -78 0 1925 10 1 66
335 256 441 34 0 1925 10 0 67
336 164 473 26 0 1925 10 0 67
337 392 95 16 0 1925 10 0 67
338 171 24 11 0 1925 10 0 67
339 172 24 -87 0 1925 10 1 67
340 210 133 15 0 1925 10 0 68
341 231 29 -15 0 1925 10 1 68
342 440 436 18 0 1925 10 0 69
343 495 199 25 0 1925 10 0 69
344 342 319 36 0 1925 10 0 69
345 373 418 -79 0 1925 10 1 69
346 334 403 26 0 1925 10 0 70
347 448 495 -26 0 1925 10 1 70
348 292 32 14 0 1925 0 0 71
349 263 153 12 0 1925 10 0 71
350 401 164 13 0 1925 10 0 71
351 64 5 14 0 1925 10 0 71
352 100 66 -53 0 1925 10 1 71
353 49 437 7 0 1925 10 0 72
354 290 328 7 0 1925 10 0 72
355 61 441 27 0 1925 10 0 72
356 293 228 19 0 1925 10 0 72
357 418 269 3 0 1925 10 0 72
358 133 455 25 0 1925 10 0 72
359 441 60 -88 0 1925 10 1 72
360 386 245 16 0 1925 10 0 73
361 359 287 24 0 1925 10 0 73
362 472 57 17 0 1925 10 0 73
363 466 96 -57 0 1925 10 1 73
364 96 346 26 0 1925 10 0 74
365 13 394 -26 0 1925 10 1 74
366 344 70 24 0 1925 10 0 75
367 173 182 25 0 1925 10 0 75
368 206 97 33 0 1925 10 0 75
369 187 73 18 0 1925 10 0 75
370 308 199 -100 0 1925 10 1 75
371 469 489 4 0 1925 10 0 76
372 114 460 -4 0 1925 10 1 76
373 64 135 11 0 1925 10 0 77
374 156 65 22 0 1925 10 0 77
375 297 304 4 0 1925 10 0 77
376 92 76 -37 0 1925 10 1 77
377 413 391 8 0 1925 10 0 78
378 418 399 20 0 1925 10 0 78
379 148 462 10 0 1925 10 0 78
380 26 442 23 0 1925 10 0 78
381 387 349 9 0 1925 10 0 78
382 340 416 36 0 1925 10 0 78
383 5 224 19 0 1925 10 0 78
384 195 464 -125 0 1925 10 1 78
385 16 287 12 0 1925 10 0 79
386 132 32 -12 0 1925 10 1 79
387 292 136 28 0 1925 10 0 80
388 134 276 15 0 1925 10 0 80
389 246 407 12 0 1925 10 0 80
390 262 97 -55 0 1925 10 1 80
391 46 389 22 0 1925 10 0 81
392 133 273 20 0 1925 10 0 81
393 94 344 26 0 1925 0 0 81
394 148 208 22 0 1925 10 0 81
395 46 163 -90 0 1925 10 1 81
396 301 239 31 0 1925 10 0 82
397 140 137 32 0 1925 10 0 82
398 295 89 23 0 1925 10 0 82
399 386 225 13 0 1925 10 0 82
400 335 46 18 0 1925 10 0 82
401 374 260 -117 0 1925 10 1 82
